(set-info :smt-lib-version 2.6)
(set-logic QF_UFLRA)
(set-info :source |
MathSat group

|)
(set-info :category "random")
(set-info :status sat)
(declare-fun x0 () Real)
(declare-fun x1 () Real)
(declare-fun x2 () Real)
(declare-fun x3 () Real)
(declare-fun x4 () Real)
(declare-fun x5 () Real)
(declare-fun x6 () Real)
(declare-fun x7 () Real)
(declare-fun x8 () Real)
(declare-fun x9 () Real)
(declare-fun x10 () Real)
(declare-fun x11 () Real)
(declare-fun x12 () Real)
(declare-fun x13 () Real)
(declare-fun x14 () Real)
(declare-fun x15 () Real)
(declare-fun x16 () Real)
(declare-fun x17 () Real)
(declare-fun x18 () Real)
(declare-fun x19 () Real)
(declare-fun x20 () Real)
(declare-fun x21 () Real)
(declare-fun x22 () Real)
(declare-fun x23 () Real)
(declare-fun x24 () Real)
(declare-fun x25 () Real)
(declare-fun x26 () Real)
(declare-fun x27 () Real)
(declare-fun x28 () Real)
(declare-fun x29 () Real)
(declare-fun x30 () Real)
(declare-fun x31 () Real)
(declare-fun x32 () Real)
(declare-fun x33 () Real)
(declare-fun x34 () Real)
(declare-fun x35 () Real)
(declare-fun x36 () Real)
(declare-fun x37 () Real)
(declare-fun x38 () Real)
(declare-fun x39 () Real)
(declare-fun x40 () Real)
(declare-fun x41 () Real)
(declare-fun x42 () Real)
(declare-fun x43 () Real)
(declare-fun x44 () Real)
(declare-fun x45 () Real)
(declare-fun x46 () Real)
(declare-fun x47 () Real)
(declare-fun x48 () Real)
(declare-fun x49 () Real)
(declare-fun f0_1 (Real) Real)
(declare-fun f0_2 (Real Real) Real)
(declare-fun f0_3 (Real Real Real) Real)
(declare-fun f0_4 (Real Real Real Real) Real)
(declare-fun P0 () Bool)
(declare-fun P1 () Bool)
(declare-fun P2 () Bool)
(declare-fun P3 () Bool)
(declare-fun P4 () Bool)
(declare-fun P5 () Bool)
(declare-fun P6 () Bool)
(declare-fun P7 () Bool)
(declare-fun P8 () Bool)
(declare-fun P9 () Bool)
(declare-fun P10 () Bool)
(declare-fun P11 () Bool)
(declare-fun P12 () Bool)
(declare-fun P13 () Bool)
(declare-fun P14 () Bool)
(declare-fun P15 () Bool)
(declare-fun P16 () Bool)
(declare-fun P17 () Bool)
(declare-fun P18 () Bool)
(declare-fun P19 () Bool)
(declare-fun P20 () Bool)
(declare-fun P21 () Bool)
(declare-fun P22 () Bool)
(declare-fun P23 () Bool)
(declare-fun P24 () Bool)
(declare-fun P25 () Bool)
(declare-fun P26 () Bool)
(declare-fun P27 () Bool)
(declare-fun P28 () Bool)
(declare-fun P29 () Bool)
(declare-fun P30 () Bool)
(declare-fun P31 () Bool)
(declare-fun P32 () Bool)
(declare-fun P33 () Bool)
(declare-fun P34 () Bool)
(declare-fun P35 () Bool)
(declare-fun P36 () Bool)
(declare-fun P37 () Bool)
(declare-fun P38 () Bool)
(declare-fun P39 () Bool)
(declare-fun P40 () Bool)
(declare-fun P41 () Bool)
(declare-fun P42 () Bool)
(declare-fun P43 () Bool)
(declare-fun P44 () Bool)
(declare-fun P45 () Bool)
(declare-fun P46 () Bool)
(declare-fun P47 () Bool)
(declare-fun P48 () Bool)
(declare-fun P49 () Bool)
(assert (let ((?v_135 (* 5 x26)) (?v_75 (distinct (+ (- (* 10 x26) (* 5 x32)) (* 13 x35)) 24)) (?v_33 (* 6 x35)) (?v_34 (* 13 x44))) (let ((?v_159 (<= (+ (- ?v_33 (* 22 x7)) ?v_34) 20)) (?v_4 (<= (- (- (* 24 x41) (* 8 x47)) (* 11 x46)) 2)) (?v_204 (<= (- (+ (* 26 x42) (* 3 x26)) (* 19 x20)) 0)) (?v_152 (* 17 x8)) (?v_53 (< (+ (- (* 8 x31) (* 17 x34)) (* 9 x21)) 7)) (?v_10 (< (- (- ?v_33 (* 5 x19)) (* 4 x40)) 4)) (?v_20 (* 17 x11))) (let ((?v_6 (<= (- (- (* 13 x25) ?v_20) (* 25 x9)) 13)) (?v_21 (< (- (- (* 23 x17) (* 22 x14)) (* 25 x4)) 11)) (?v_196 (< (- (+ (* 18 x13) (* 8 x16)) (* 16 x31)) 11)) (?v_55 (distinct (f0_1 x43) (f0_1 x28))) (?v_63 (f0_1 x11))) (let ((?v_208 (= ?v_63 x14)) (?v_22 (f0_1 x48))) (let ((?v_54 (= x40 ?v_22)) (?v_78 (= x18 (f0_2 x23 x9))) (?v_27 (= (f0_1 x37) (f0_2 x49 x48))) (?v_244 (= (f0_2 x24 x14) (f0_1 x7))) (?v_86 (= (f0_2 x35 x26) ?v_63)) (?v_104 (f0_1 x38))) (let ((?v_88 (= ?v_104 (f0_2 x26 x22))) (?v_35 (= x20 (f0_2 x4 x48))) (?v_162 (= ?v_63 (f0_1 x17))) (?v_225 (= (f0_1 x32) (f0_1 x24))) (?v_254 (= (f0_1 x9) (f0_2 x3 x24))) (?v_58 (= x10 (f0_2 x17 x3))) (?v_66 (= (f0_2 x28 x24) x22)) (?v_146 (distinct (f0_2 x28 x6) (f0_2 x25 x19))) (?v_80 (distinct x43 ?v_63)) (?v_72 (= (f0_2 x45 x15) (f0_1 x45))) (?v_32 (f0_1 x16))) (let ((?v_11 (= ?v_32 x45)) (?v_178 (distinct x49 ?v_32)) (?v_47 (distinct (f0_2 x12 x23) x45)) (?v_23 (= x44 x30)) (?v_189 (= x11 (f0_2 x25 x20))) (?v_15 (= (f0_2 x40 x0) (f0_2 x22 x31))) (?v_73 (= (f0_1 x14) (f0_2 x6 x31))) (?v_44 (distinct (f0_2 x41 x9) (f0_1 x30))) (?v_142 (= (f0_2 x39 x38) x28)) (?v_173 (distinct (f0_1 x41) x7)) (?v_25 (distinct x11 x31)) (?v_95 (= (f0_1 x1) (f0_1 x29))) (?v_39 (distinct (f0_1 x33) (f0_1 x34))) (?v_18 (= x5 (f0_2 x17 x21))) (?v_91 (distinct x30 x11)) (?v_16 (= (f0_2 x14 x28) x4)) (?v_3 (distinct (f0_2 x12 x16) (f0_2 x6 x4))) (?v_151 (distinct x1 (f0_2 x48 x44))) (?v_232 (distinct x37 (f0_2 x29 x46))) (?v_124 (= ?v_104 x26)) (?v_125 (= x16 (f0_2 x10 x16))) (?v_26 (= (f0_2 x21 x7) (f0_2 x5 x30))) (?v_19 (= (f0_2 x11 x32) (f0_1 x21))) (?v_68 (f0_1 x0))) (let ((?v_41 (distinct ?v_68 x6)) (?v_116 (= x31 ?v_68)) (?v_84 (= x44 (f0_2 x2 x38))) (?v_90 (distinct (f0_2 x12 x17) (f0_2 x13 x46))) (?v_60 (= (f0_2 x15 x27) (f0_2 x47 x26))) (?v_131 (= x22 (f0_2 x11 x30))) (?v_97 (= (f0_1 x5) x4)) (?v_65 (distinct (f0_1 x44) x35)) (?v_114 (distinct x47 x2)) (?v_42 (distinct ?v_22 x13)) (?v_14 (not P29)) (?v_29 (not ?v_4))) (let ((?v_121 (not ?v_65)) (?v_46 (not P33)) (?v_85 (not ?v_27)) (?v_31 (not ?v_35)) (?v_171 (not ?v_21)) (?v_110 (not P19)) (?v_109 (not ?v_10)) (?v_2 (not P47)) (?v_81 (not P5)) (?v_69 (not P30)) (?v_45 (not P20)) (?v_132 (not ?v_189)) (?v_144 (not ?v_3)) (?v_7 (not P17)) (?v_30 (not P25)) (?v_8 (not P32)) (?v_36 (not ?v_6)) (?v_70 (not P40)) (?v_111 (not P36)) (?v_227 (not P48)) (?v_160 (not ?v_84)) (?v_211 (not ?v_44)) (?v_28 (not P44)) (?v_247 (not ?v_11)) (?v_50 (not ?v_53)) (?v_77 (not ?v_55)) (?v_127 (not ?v_15)) (?v_149 (not P46)) (?v_100 (not ?v_42)) (?v_138 (not ?v_23)) (?v_107 (not P21)) (?v_112 (not P3)) (?v_102 (not P9)) (?v_37 (not ?v_26)) (?v_52 (not P12)) (?v_200 (not ?v_16)) (?v_214 (not ?v_178)) (?v_76 (not ?v_159)) (?v_56 (not P42)) (?v_163 (not ?v_75)) (?v_105 (not ?v_131)) (?v_99 (not P8)) (?v_229 (not ?v_39)) (?v_108 (not ?v_18)) (?v_206 (not ?v_47)) (?v_224 (not P43)) (?v_57 (not ?v_54)) (?v_156 (not P23)) (?v_238 (not ?v_25)) (?v_213 (not P13)) (?v_130 (not ?v_151)) (?v_143 (not ?v_60)) (?v_82 (not P35)) (?v_166 (not P27)) (?v_219 (not ?v_80)) (?v_96 (not ?v_244)) (?v_87 (not ?v_254)) (?v_123 (not ?v_72)) (?v_126 (not ?v_73)) (?v_182 (not ?v_19)) (?v_258 (not ?v_78)) (?v_185 (not P34)) (?v_194 (not ?v_196)) (?v_249 (not P1)) (?v_141 (not ?v_86)) (?v_234 (not ?v_88)) (?v_181 (not ?v_225)) (?v_197 (not ?v_91)) (?v_205 (not P10)) (?v_168 (not P18)) (?v_98 (not P38)) (?v_210 (not ?v_95)) (?v_134 (not P14)) (?v_148 (not ?v_66)) (?v_118 (not P45)) (?v_240 (not P37)) (?v_155 (not P22)) (?v_172 (not P15)) (?v_161 (not ?v_116)) (?v_133 (not P2)) (?v_180 (not ?v_124)) (?v_223 (not ?v_125)) (?v_157 (not ?v_162)) (?v_153 (not P4)) (?v_167 (not ?v_142)) (?v_230 (not ?v_97)) (?v_251 (not P24)) (?v_201 (not ?v_208)) (?v_175 (not ?v_146)) (?v_242 (not P0)) (?v_174 (not P49)) (?v_259 (not ?v_173)) (?v_226 (not P11)) (?v_198 (not P41)) (?v_193 (not P26)) (?v_248 (not P31)) (?v_239 (not P7)) (?v_243 (not ?v_41)) (?v_216 (not ?v_232)) (?v_215 (not ?v_204)) (?v_209 (not P16)) (?v_233 (not ?v_58)) (?v_236 (not P28)) (?v_250 (not ?v_114)) (?v_252 (not P39)) (?v_260 (not ?v_90)) (?v_0 (< (+ (- 0 x39) (* 9 x42)) 21)) (?v_9 (<= (* 10 x2) 29)) (?v_24 (< (- (- 0 x20) (* 3 x37)) 15)) (?v_62 (<= (+ (- (* 23 x14) 0) ?v_34) 9))) (let ((?v_188 (not ?v_0)) (?v_228 (not ?v_24)) (?v_184 (not ?v_9)) (?v_140 (< (- (* 15 x22) (* 3 x15)) 19))) (let ((?v_79 (not ?v_140)) (?v_257 (not ?v_62)) (?v_165 (<= (+ (* 27 x33) (* 14 x27) (* 23 x1)) 9)) (?v_139 (<= (- (* 21 x27) (* 24 x48)) 19))) (let ((?v_217 (not ?v_139)) (?v_245 (or ?v_140 ?v_26)) (?v_183 (< (+ (* 5 x41) ?v_152 (* 16 x26)) 25))) (let ((?v_255 (not ?v_183)) (?v_212 (not ?v_165)) (?v_1 (* (- 5) x19))) (let ((?v_83 (< (- (+ ?v_1 (* 26 x23)) 0) (- 10))) (?v_106 (<= (- (- (* (- 12) x12) (* 14 x21)) (* 10 x49)) (- 28)))) (let ((?v_190 (not ?v_106)) (?v_192 (< (- ?v_1 (* 4 x15)) 29))) (let ((?v_67 (not ?v_192)) (?v_48 (< (+ (- (* (- 20) x43) (* 24 x19)) (* 25 x33)) 21))) (let ((?v_231 (not ?v_48)) (?v_113 (<= (- (* 7 x48) 0) (- 27)))) (let ((?v_119 (not ?v_113)) (?v_64 (distinct (- (* 26 x43) (* 20 x19)) (- 29))) (?v_12 (<= (- (+ (* (- 2) x20) ?v_152) (* 8 x33)) (- 16)))) (let ((?v_38 (not ?v_12)) (?v_5 (<= (+ (* (- 17) x17) x38 (* 20 x39)) (- 17))) (?v_71 (<= (+ (- (* 11 x31) (* 11 x30)) (* 4 x29)) (- 17)))) (let ((?v_93 (not ?v_71)) (?v_17 (<= (- (+ (* (- 25) x18) (* 9 x10)) (* 2 x33)) (- 17))) (?v_186 (< (+ ?v_135 (* 24 x21) (* 9 x4)) (- 29))) (?v_40 (< (- (- (* 16 x27) x43) (* 7 x2)) (- 16))) (?v_241 (not ?v_5)) (?v_103 (<= (+ (- (* 13 x1) (* 14 x23)) (* 16 x41)) (- 20))) (?v_59 (<= (- (- x40 (* 3 x7)) (* 8 x44)) (- 7))) (?v_51 (< (+ (- (* (- 11) x1) (* 15 x7)) (* 18 x12)) (- 20)))) (let ((?v_202 (not ?v_51)) (?v_101 (distinct (- (* (- 18) x16) (* 20 x31)) 21))) (let ((?v_122 (not ?v_101)) (?v_43 (distinct (- (+ (* (- 16) x36) (* 15 x38)) (* 11 x4)) (- 14))) (?v_94 (distinct (- (+ (* (- 9) x22) (* 16 x14)) (* 3 x8)) (- 26)))) (let ((?v_13 (not ?v_94)) (?v_61 (< (- (* (- 13) x30) (* 21 x14)) (- 24))) (?v_221 (not ?v_17)) (?v_49 (<= (- (- (* (- 2) x33) (* 4 x45)) ?v_20) 29))) (let ((?v_92 (not ?v_49)) (?v_89 (<= (- (+ (* (- 1) x6) (* 2 x5)) (* 9 x33)) (- 6))) (?v_150 (not ?v_40)) (?v_136 (not ?v_43)) (?v_207 (not ?v_59)) (?v_158 (< (+ (* (- 14) x2) (* 4 x43) (* 27 x35)) (- 4)))) (let ((?v_246 (not ?v_158)) (?v_128 (not ?v_61)) (?v_74 (<= (+ (* (- 15) x14) (* 13 x34) (* 15 x13)) 21)) (?v_115 (< (- (- (* (- 22) x25) (* 6 x42)) (* 24 x29)) 5)) (?v_117 (< (+ (* (- 18) x0) (* 24 x4) (* 17 x22)) (- 6)))) (let ((?v_203 (not ?v_117)) (?v_154 (not ?v_89)) (?v_120 (not ?v_83)) (?v_129 (not ?v_64)) (?v_191 (not ?v_74)) (?v_170 (= (- (+ (* 16 x2) (* 7 x16)) (* 21 x10)) (- 4)))) (let ((?v_137 (not ?v_170)) (?v_147 (< (- (+ (* 12 x27) (* 10 x1)) (* 13 x8)) (- 18)))) (let ((?v_145 (not ?v_147)) (?v_169 (<= (+ x45 (* 7 x21) ?v_135) (- 6)))) (let ((?v_187 (not ?v_169)) (?v_253 (= (- (+ (* 16 x37) (* 16 x44)) (* 11 x32)) (- 27)))) (let ((?v_199 (not ?v_253)) (?v_237 (not ?v_103)) (?v_177 (<= (+ (- (* (- 27) x20) (* 4 x48)) (* 21 x25)) (- 20)))) (let ((?v_164 (not ?v_177)) (?v_195 (< (- (+ (* (- 25) x11) (* 6 x37)) (* 18 x27)) (- 15)))) (let ((?v_176 (not ?v_195)) (?v_179 (< (- (- (* (- 23) x18) 0) (* 17 x4)) (- 4)))) (let ((?v_218 (not ?v_179)) (?v_220 (not ?v_186)) (?v_256 (not ?v_115)) (?v_235 (< (+ (* (- 15) x46) x2) (- 26)))) (let ((?v_222 (not ?v_235))) (and (and (and (and (and (and (and (and (and (and (and (and (and (and (and (and (and (and (and (and (and (and (and (and (and (and (and (and (and (and (and (and (and (and (and (and (and (and (and (and (and (and (and (and (and (and (and (and (and (and (and (and (and (and (and (and (and (and (and (and (and (and (and (and (and (and (and (and (and (and (and (and (and (and (and (and (and (and (and (and (and (and (and (and (and (and (and (and (and (and (and (and (and (and (and (and (and (and (and (and (and (and (and (and (and (and (and (and (and (and (and (and (and (and (and (and (and (and (and (and (and (and (and (and (and (and (and (and (and (and (and (and (and (and (and (and (and (and (and (and (and (and (and (and (and (and (and (and (and (and (and (and (and (and (and (and (and (and (and (and (and (and (and (and (and (and (and (and (and (and (and (and (and (and (and (and (and (and (and (and (and (and (and (and (and (and (and (and (and (and (and (and (and (and (and (and (and (and (and (and (and (and (and (and (and (and (and (and (and (and (and (and (and (and (and (and (and (and (and (and (and (and (and (and (and (and (and (and (and (and (and (and (and (and (and (and (and (and (and (and (and (and (and (and (and (and (and (and (and (and (and (and (and (and (and (and (and (and (and (and (and (and (and (and (and (and (and (and (and (and (and (and (and (and (and (and (and (and (and (and (and (and (and (and (and (and (and (and (and (and (and (and (and (and (and (and (and (and (and (and (and (and (and (and (and (and (and (and (and (and (and (and (and (and (and (and (and (and (and (and (and (and (and (and (and (and (and (and (and (and (and (and (and (and (and (and (and (and (and (and (and (and (and (and (and (and (and (and (and (and (and (and (and (and (and (and (and (and (and (and (and (and (and (and (and (and (and (and (and (and (and (and (and (and (and (and (and (and (and (and (and (and (and (and (and (and (and (and (and (and (and (and (and (and (and (and (and (and (and (and (and (and (and (and (and (and (and (and (and (and (and (and (and (and (and (and (and (and (and (and (and (and (and (and (and (and (and (and (and (and (and (and (and (and (and (and (and (and (and (and (and (and (and (and (and (and (and (and (and (and (and (and (and (and (and (and (and (and (and (and (and (and (and (and (and (and (and (and (and (and (and (and (and (and (and (and (and (and (and (and (and (and (and (and (and (and (and (and (and (and (and (and (and (and (and (and (and (and (and (and (and (and (and (and (and (and (and (and (and (and (and (and (and (and (and (and (and (and (and (and (and (and (and (and (and (and (and (and (and (and (and (and (and (and (and (and (and (and (and (and (and (and (and (and (and (and (and (and (and (and (and (and (and (and (and (and (and (and (and (and (and (and (and (and (and (and (and (and (and (and (and (and (and (and (and (and (and (and (and (and (and (and (and (and (and (and (and (and (and (and (and (and (and (and (and (and (and (and (and (or (or ?v_14 P28) P7) (or (or ?v_72 ?v_83) ?v_0)) (or (or ?v_29 ?v_121) ?v_190)) (or (or P32 ?v_46) ?v_0)) (or (or ?v_85 P8) ?v_31)) (or (or ?v_67 ?v_171) ?v_110)) (or (or ?v_109 ?v_2) ?v_81)) (or (or P3 ?v_69) ?v_231)) (or (or ?v_9 ?v_2) ?v_3)) (or (or P33 ?v_45) ?v_119)) (or (or P5 ?v_54) ?v_0)) (or (or ?v_114 ?v_64) ?v_132)) (or (or ?v_66 ?v_144) ?v_4)) (or (or ?v_38 ?v_5) ?v_7)) (or (or ?v_78 P21) ?v_93)) (or (or ?v_17 P20) P45)) (or (or ?v_186 ?v_30) ?v_5)) (or (or ?v_6 P7) ?v_8)) (or (or ?v_36 ?v_70) ?v_26)) (or (or ?v_111 ?v_41) ?v_16)) (or (or P29 ?v_24) ?v_227)) (or (or ?v_160 P18) ?v_40)) (or (or ?v_86 ?v_39) ?v_23)) (or (or ?v_241 ?v_15) ?v_7)) (or (or ?v_103 ?v_18) ?v_25)) (or (or ?v_90 ?v_59) ?v_73)) (or (or ?v_202 ?v_62) ?v_60)) (or (or ?v_8 ?v_122) ?v_211)) (or (or ?v_28 P25) ?v_43)) (or (or P16 ?v_247) ?v_9)) (or (or P32 ?v_13) ?v_10)) (or (or ?v_61 ?v_11) ?v_19)) (or (or ?v_58 P33) ?v_12)) (or (or ?v_13 ?v_50) ?v_14)) (or (or ?v_77 ?v_127) ?v_16)) (or (or ?v_221 ?v_18) ?v_19)) (or (or P28 ?v_92) ?v_21)) (or (or ?v_149 ?v_100) ?v_138)) (or (or ?v_107 P26) P6)) (or (or ?v_188 ?v_228) ?v_112)) (or (or ?v_146 ?v_102) ?v_25)) (or (or ?v_37 P38) ?v_52)) (or (or ?v_19 P28) ?v_5)) (or (or ?v_7 P37) ?v_27)) (or (or ?v_28 ?v_29) ?v_21)) (or (or ?v_30 P19) ?v_31)) (or (or P48 ?v_200) P30)) (or (or ?v_214 ?v_76) ?v_35)) (or (or P25 ?v_89) ?v_24)) (or (or ?v_8 ?v_56) P38)) (or (or ?v_163 ?v_36) ?v_37)) (or (or ?v_38 ?v_105) ?v_99)) (or (or ?v_229 ?v_5) ?v_150)) (or (or ?v_41 ?v_42) ?v_136)) (or (or ?v_24 ?v_173) ?v_108)) (or (or ?v_44 ?v_45) ?v_46)) (or (or ?v_206 ?v_47) P10)) (or (or ?v_5 ?v_184) ?v_224)) (or (or ?v_79 ?v_48) ?v_49)) (or (or P42 ?v_125) P22)) (or (or P30 ?v_50) ?v_42)) (or (or ?v_51 ?v_52) ?v_53)) (or (or ?v_52 ?v_57) ?v_55)) (or (or ?v_56 ?v_57) ?v_58)) (or (or ?v_156 ?v_0) ?v_238)) (or (or ?v_207 ?v_213) ?v_130)) (or (or ?v_246 ?v_143) ?v_128)) (or (or ?v_74 ?v_17) ?v_5)) (or (or ?v_82 P44) ?v_12)) (or (or ?v_62 P34) ?v_166)) (or (or P30 ?v_219) ?v_52)) (or (or ?v_64 ?v_65) ?v_5)) (or (or P41 ?v_66) ?v_67)) (or (or ?v_96 ?v_115) P15)) (or (or ?v_26 ?v_6) ?v_116)) (or (or P10 ?v_69) ?v_70)) (or (or ?v_71 P36) P35)) (or (or P21 ?v_87) ?v_123)) (or (or ?v_126 ?v_74) ?v_182)) (or (or ?v_97 P39) ?v_61)) (or (or ?v_75 P25) ?v_257)) (or (or ?v_76 ?v_49) ?v_77)) (or (or ?v_72 ?v_95) ?v_31)) (or (or ?v_258 ?v_79) ?v_185)) (or (or ?v_194 ?v_25) ?v_80)) (or (or ?v_28 ?v_81) ?v_91)) (or (or P2 ?v_26) ?v_75)) (or (or P33 ?v_82) ?v_88)) (or (or P37 ?v_9) ?v_51)) (or (or ?v_83 ?v_84) ?v_13)) (or (or ?v_85 ?v_249) ?v_62)) (or (or P24 P38) ?v_141)) (or (or ?v_0 ?v_87) ?v_234)) (or (or ?v_203 ?v_50) ?v_64)) (or (or ?v_181 ?v_154) ?v_90)) (or (or ?v_197 ?v_92) ?v_205)) (or (or ?v_93 ?v_168) ?v_98)) (or (or ?v_94 ?v_210) ?v_6)) (or (or P20 ?v_28) ?v_36)) (or (or ?v_14 ?v_120) ?v_165)) (or (or ?v_96 ?v_134) ?v_10)) (or (or ?v_44 ?v_97) ?v_90)) (or (or ?v_94 ?v_98) P11)) (or (or ?v_99 ?v_100) ?v_101)) (or (or ?v_84 ?v_61) P19)) (or (or ?v_102 ?v_103) ?v_44)) (or (or ?v_7 ?v_129) ?v_124)) (or (or ?v_105 ?v_88) ?v_106)) (or (or ?v_148 ?v_107) ?v_118)) (or (or ?v_108 ?v_109) P47)) (or (or P26 P39) ?v_110)) (or (or ?v_101 ?v_240) ?v_111)) (or (or ?v_112 ?v_28) ?v_155)) (or (or ?v_204 ?v_16) ?v_108)) (or (or P14 P28) ?v_113)) (or (or ?v_139 P46) ?v_114)) (or (or ?v_172 ?v_57) ?v_49)) (or (or P11 ?v_115) ?v_15)) (or (or ?v_109 P21) P20)) (or (or ?v_100 P37) ?v_161)) (or (or ?v_117 ?v_61) P38)) (or (or P21 P2) ?v_118)) (or (or ?v_17 ?v_119) P16)) (or (or ?v_191 ?v_39) ?v_15)) (or (or P1 ?v_13) P11)) (or (or ?v_120 ?v_121) ?v_98)) (or (or ?v_133 ?v_61) ?v_122)) (or (or ?v_123 ?v_180) ?v_5)) (or (or ?v_223 ?v_126) ?v_127)) (or (or ?v_79 ?v_82) ?v_128)) (or (or ?v_119 ?v_129) ?v_0)) (or (or ?v_157 ?v_130) ?v_109)) (or (or ?v_131 ?v_9) ?v_15)) (or (or P20 ?v_31) ?v_115)) (or (or ?v_137 ?v_114) ?v_96)) (or (or ?v_108 ?v_28) ?v_60)) (or (or ?v_145 P29) ?v_132)) (or (or ?v_122 ?v_131) ?v_80)) (or (or ?v_73 ?v_39) ?v_133)) (or (or ?v_134 ?v_71) P38)) (or (or ?v_187 ?v_153) ?v_136)) (or (or ?v_137 ?v_167) ?v_106)) (or (or ?v_67 ?v_31) ?v_138)) (or (or ?v_72 ?v_94) ?v_217)) (or (or ?v_100 P45) ?v_73)) (or ?v_245 ?v_83)) (or (or P7 P29) P46)) (or (or ?v_141 ?v_49) P19)) (or (or ?v_133 ?v_48) ?v_199)) (or (or ?v_134 ?v_87) ?v_116)) (or (or P13 ?v_75) ?v_142)) (or (or P41 ?v_60) P46)) (or (or ?v_66 P42) ?v_4)) (or (or ?v_143 ?v_16) ?v_144)) (or (or ?v_9 P14) ?v_6)) (or (or ?v_230 ?v_26) ?v_251)) (or (or ?v_62 P4) ?v_6)) (or (or ?v_145 P10) ?v_124)) (or (or ?v_144 ?v_146) ?v_147)) (or (or ?v_47 ?v_109) ?v_148)) (or (or ?v_149 ?v_5) P41)) (or (or ?v_40 ?v_150) ?v_201)) (or (or ?v_151 ?v_255) ?v_113)) (or (or ?v_153 ?v_120) ?v_154)) (or (or ?v_128 ?v_26) ?v_155)) (or (or ?v_156 P29) ?v_30)) (or (or ?v_26 ?v_2) ?v_128)) (or (or ?v_24 P37) ?v_157)) (or (or P45 P40) ?v_0)) (or (or ?v_92 ?v_158) ?v_79)) (or (or ?v_66 ?v_237) P38)) (or (or ?v_159 ?v_94) ?v_160)) (or (or ?v_111 ?v_12) P28)) (or (or ?v_151 ?v_121) ?v_161)) (or (or ?v_2 ?v_31) ?v_162)) (or (or ?v_175 ?v_164) ?v_163)) (or (or ?v_164 ?v_212) ?v_242)) (or (or ?v_87 P49) P3)) (or (or ?v_49 ?v_176) ?v_166)) (or (or ?v_107 ?v_161) ?v_167)) (or (or ?v_78 ?v_146) ?v_24)) (or (or ?v_168 ?v_53) ?v_120)) (or (or P26 P30) ?v_174)) (or (or P28 ?v_119) ?v_169)) (or (or ?v_30 ?v_75) ?v_170)) (or (or ?v_111 ?v_171) P32)) (or (or ?v_172 ?v_55) ?v_79)) (or (or P24 ?v_160) ?v_259)) (or (or ?v_174 ?v_4) ?v_226)) (or (or ?v_121 P17) ?v_45)) (or (or ?v_114 ?v_56) ?v_140)) (or (or ?v_175 ?v_40) ?v_57)) (or (or ?v_175 ?v_16) ?v_59)) (or (or ?v_84 ?v_9) ?v_101)) (or (or ?v_60 ?v_109) ?v_218)) (or (or ?v_159 P2) ?v_36)) (or (or ?v_174 ?v_71) ?v_176)) (or (or ?v_177 P48) ?v_151)) (or (or ?v_178 ?v_111) ?v_97)) (or (or P13 ?v_9) ?v_179)) (or (or ?v_25 ?v_178) ?v_180)) (or (or ?v_44 P17) ?v_11)) (or (or ?v_144 ?v_95) ?v_181)) (or (or P46 ?v_182) ?v_155)) (or (or P17 ?v_155) ?v_76)) (or (or P21 ?v_183) ?v_53)) (or (or ?v_147 ?v_184) ?v_185)) (or (or ?v_129 P42) ?v_121)) (or (or ?v_134 ?v_44) ?v_220)) (or (or ?v_54 ?v_6) P43)) (or (or P29 ?v_184) P11)) (or (or ?v_198 P18) ?v_163)) (or (or P1 P40) P44)) (or (or ?v_27 ?v_193) ?v_13)) (or (or ?v_187 ?v_65) ?v_120)) (or (or ?v_133 ?v_185) ?v_103)) (or (or ?v_176 P19) P1)) (or (or ?v_81 ?v_62) ?v_133)) (or (or ?v_127 ?v_37) ?v_0)) (or (or ?v_132 ?v_66) ?v_27)) (or (or P10 ?v_248) ?v_61)) (or (or ?v_114 ?v_115) ?v_188)) (or (or ?v_79 P23) ?v_141)) (or (or ?v_189 P27) ?v_190)) (or (or P9 ?v_239) ?v_175)) (or (or ?v_189 ?v_82) P41)) (or (or ?v_24 ?v_15) ?v_143)) (or (or ?v_243 P34) ?v_191)) (or (or ?v_178 ?v_172) P7)) (or (or P9 ?v_14) ?v_93)) (or (or ?v_164 ?v_138) ?v_192)) (or (or ?v_170 ?v_6) ?v_142)) (or (or ?v_193 ?v_128) ?v_17)) (or (or ?v_57 ?v_144) ?v_194)) (or (or ?v_195 ?v_94) P33)) (or (or ?v_116 ?v_176) ?v_118)) (or (or ?v_143 ?v_119) ?v_182)) (or (or ?v_185 ?v_196) ?v_50)) (or (or ?v_160 ?v_111) P43)) (or (or ?v_197 ?v_161) ?v_49)) (or (or ?v_143 P35) P7)) (or (or ?v_97 ?v_30) ?v_198)) (or (or ?v_180 ?v_199) P2)) (or (or ?v_27 P48) ?v_19)) (or (or ?v_160 ?v_200) P26)) (or (or ?v_180 ?v_201) ?v_101)) (or (or ?v_216 P8) P41)) (or (or ?v_69 ?v_202) ?v_198)) (or (or P43 ?v_173) ?v_23)) (or (or P21 P33) ?v_60)) (or (or ?v_203 ?v_136) ?v_96)) (or (or ?v_215 ?v_129) ?v_77)) (or (or ?v_38 ?v_185) ?v_209)) (or (or ?v_139 ?v_157) P32)) (or (or ?v_205 ?v_206) ?v_189)) (or (or ?v_207 ?v_106) ?v_39)) (or (or ?v_43 ?v_53) ?v_3)) (or (or ?v_174 ?v_2) ?v_125)) (or (or P0 ?v_171) ?v_201)) (or (or P30 ?v_72) ?v_207)) (or (or ?v_177 ?v_55) P39)) (or (or ?v_102 ?v_121) ?v_91)) (or (or ?v_107 ?v_145) ?v_52)) (or (or P41 ?v_96) P34)) (or (or ?v_136 ?v_79) P47)) (or (or ?v_60 ?v_35) ?v_178)) (or (or ?v_53 ?v_162) ?v_132)) (or (or ?v_120 ?v_208) ?v_162)) (or (or ?v_209 P4) ?v_187)) (or (or ?v_117 ?v_123) P36)) (or (or ?v_210 ?v_144) P33)) (or (or ?v_128 ?v_84) ?v_140)) (or (or ?v_176 ?v_3) ?v_168)) (or (or ?v_55 P4) P30)) (or (or ?v_24 ?v_121) ?v_113)) (or (or ?v_36 ?v_125) ?v_211)) (or (or P20 ?v_212) ?v_38)) (or (or ?v_140 ?v_44) ?v_41)) (or (or ?v_213 ?v_161) ?v_134)) (or (or ?v_256 ?v_214) ?v_24)) (or (or ?v_108 P27) ?v_159)) (or (or ?v_222 P35) ?v_53)) (or (or ?v_117 ?v_215) ?v_136)) (or (or ?v_133 ?v_161) ?v_216)) (or (or ?v_109 ?v_217) ?v_40)) (or (or ?v_202 ?v_174) ?v_120)) (or (or ?v_210 P34) ?v_48)) (or (or ?v_67 ?v_15) ?v_19)) (or (or P7 ?v_42) ?v_216)) (or (or ?v_175 ?v_218) ?v_129)) (or (or ?v_61 ?v_74) ?v_58)) (or (or ?v_123 P24) ?v_77)) (or (or ?v_16 ?v_137) ?v_93)) (or (or ?v_102 ?v_174) ?v_44)) (or (or ?v_17 ?v_170) ?v_219)) (or (or ?v_176 ?v_103) ?v_92)) (or (or ?v_171 ?v_178) P45)) (or (or ?v_144 ?v_94) ?v_167)) (or (or ?v_166 ?v_76) ?v_83)) (or (or ?v_220 ?v_42) ?v_185)) (or (or ?v_124 ?v_212) ?v_139)) (or (or ?v_221 ?v_14) ?v_222)) (or (or ?v_223 ?v_131) P36)) (or (or ?v_224 ?v_4) ?v_188)) (or (or ?v_225 P7) ?v_42)) (or (or ?v_233 ?v_122) P18)) (or (or ?v_200 ?v_226) P40)) (or (or ?v_227 ?v_226) ?v_84)) (or (or ?v_82 ?v_194) ?v_203)) (or (or ?v_176 ?v_158) ?v_52)) (or (or ?v_228 ?v_64) ?v_53)) (or (or ?v_226 ?v_6) ?v_53)) (or (or P13 ?v_229) ?v_10)) (or (or P16 P10) ?v_230)) (or (or ?v_196 ?v_102) ?v_224)) (or (or ?v_71 ?v_76) P15)) (or (or ?v_83 ?v_144) P48)) (or (or ?v_64 ?v_102) ?v_113)) (or (or ?v_70 P4) ?v_173)) (or (or ?v_221 ?v_94) ?v_179)) (or (or ?v_151 ?v_77) ?v_201)) (or (or ?v_21 ?v_24) ?v_25)) (or (or P37 ?v_194) ?v_90)) (or (or ?v_82 ?v_214) ?v_25)) (or (or ?v_11 ?v_78) ?v_24)) (or (or P23 ?v_231) P29)) (or (or P16 ?v_232) ?v_167)) (or (or ?v_161 ?v_197) ?v_66)) (or (or P5 ?v_183) ?v_134)) (or (or ?v_55 ?v_233) ?v_186)) (or (or ?v_185 ?v_157) ?v_66)) (or (or (not P6) ?v_99) ?v_7)) (or (or ?v_202 ?v_18) ?v_137)) (or (or ?v_128 ?v_179) ?v_80)) (or (or P18 ?v_142) ?v_71)) (or (or ?v_25 P27) ?v_219)) (or (or ?v_102 ?v_108) ?v_172)) (or (or ?v_148 ?v_233) ?v_192)) (or (or ?v_234 ?v_96) ?v_236)) (or (or ?v_27 ?v_13) P23)) (or (or ?v_160 P44) ?v_78)) (or (or P35 ?v_181) ?v_69)) (or (or ?v_191 ?v_173) ?v_235)) (or (or ?v_54 ?v_171) ?v_79)) (or (or ?v_134 ?v_124) ?v_193)) (or (or ?v_146 ?v_236) ?v_90)) (or (or ?v_172 ?v_94) P20)) (or (or ?v_237 ?v_0) ?v_168)) (or (or ?v_236 ?v_180) P20)) (or (or ?v_12 ?v_230) ?v_175)) (or (or ?v_238 ?v_211) ?v_111)) (or (or ?v_3 ?v_86) P47)) (or (or ?v_208 ?v_43) ?v_39)) (or (or ?v_14 ?v_27) P6)) (or (or ?v_112 ?v_29) P6)) (or (or ?v_129 ?v_82) ?v_167)) (or (or ?v_7 ?v_175) ?v_239)) (or (or ?v_162 ?v_83) ?v_75)) (or (or P26 P45) ?v_209)) (or (or ?v_67 ?v_93) P17)) (or (or P20 ?v_177) ?v_26)) (or (or P16 ?v_133) ?v_92)) (or (or ?v_184 ?v_110) P13)) (or (or ?v_130 ?v_26) ?v_208)) (or (or ?v_129 ?v_240) ?v_128)) (or (or ?v_13 ?v_82) ?v_206)) (or (or ?v_207 ?v_54) ?v_224)) (or (or ?v_182 ?v_116) ?v_56)) (or (or ?v_61 ?v_239) ?v_202)) (or (or ?v_121 ?v_15) P29)) (or (or ?v_45 P29) ?v_58)) (or (or ?v_199 P15) ?v_174)) (or (or ?v_165 ?v_123) P40)) (or (or ?v_228 ?v_62) ?v_214)) (or (or P15 ?v_105) ?v_77)) (or (or ?v_13 P14) ?v_27)) (or (or ?v_148 ?v_217) ?v_211)) (or (or ?v_37 ?v_141) ?v_151)) (or (or ?v_19 P8) ?v_98)) (or (or ?v_207 ?v_185) P8)) (or (or ?v_173 ?v_184) ?v_172)) (or (or ?v_126 ?v_207) ?v_150)) (or (or ?v_140 ?v_38) P2)) (or (or P29 ?v_28) ?v_110)) (or (or P14 ?v_113) ?v_241)) (or (or ?v_173 ?v_96) ?v_119)) (or (or ?v_55 ?v_236) ?v_227)) (or (or ?v_204 ?v_197) ?v_232)) (or (or ?v_15 ?v_250) ?v_222)) (or (or ?v_242 P13) ?v_111)) (or (or P36 ?v_49) ?v_202)) (or (or ?v_44 ?v_66) ?v_170)) (or (or ?v_133 ?v_220) P47)) (or (or ?v_156 ?v_181) P27)) (or (or P5 ?v_243) ?v_162)) (or (or ?v_191 P17) ?v_143)) (or (or P11 P16) ?v_150)) (or (or ?v_244 ?v_78) ?v_167)) (or (or ?v_69 ?v_174) P13)) (or (or ?v_62 P35) ?v_92)) (or (or P4 ?v_168) ?v_154)) (or (or ?v_177 ?v_132) ?v_230)) (or (or ?v_225 P24) P49)) (or (or ?v_57 ?v_48) ?v_21)) (or (or ?v_94 ?v_105) ?v_252)) (or (or ?v_151 P40) ?v_212)) (or ?v_245 ?v_81)) (or (or P3 ?v_7) ?v_246)) (or (or ?v_181 ?v_18) ?v_172)) (or (or ?v_69 P11) ?v_221)) (or (or ?v_176 ?v_16) ?v_140)) (or (or ?v_62 ?v_11) P36)) (or (or ?v_208 ?v_119) ?v_18)) (or (or ?v_64 ?v_213) ?v_215)) (or (or P20 ?v_148) ?v_229)) (or (or ?v_43 ?v_204) ?v_56)) (or (or ?v_239 ?v_247) P28)) (or (or ?v_194 P18) P2)) (or (or ?v_50 ?v_16) ?v_41)) (or (or ?v_148 ?v_229) ?v_60)) (or (or ?v_81 ?v_136) ?v_95)) (or (or ?v_38 ?v_200) ?v_217)) (or (or ?v_181 ?v_208) ?v_153)) (or (or ?v_125 P45) ?v_180)) (or (or ?v_16 ?v_7) ?v_181)) (or (or ?v_46 ?v_187) ?v_216)) (or (or ?v_133 P6) ?v_125)) (or (or ?v_227 ?v_50) ?v_4)) (or (or P44 ?v_248) ?v_154)) (or (or ?v_3 ?v_96) ?v_243)) (or (or ?v_164 ?v_208) ?v_185)) (or (or P5 ?v_82) ?v_110)) (or (or ?v_217 ?v_55) ?v_137)) (or (or ?v_126 P44) ?v_194)) (or (or ?v_86 ?v_185) ?v_249)) (or (or ?v_46 ?v_170) ?v_17)) (or (or ?v_212 ?v_86) ?v_173)) (or (or ?v_114 ?v_86) ?v_101)) (or (or ?v_191 ?v_176) ?v_72)) (or (or P46 ?v_13) ?v_45)) (or (or ?v_120 P19) ?v_14)) (or (or ?v_120 P31) P41)) (or (or ?v_186 ?v_75) ?v_250)) (or (or ?v_7 ?v_61) ?v_37)) (or (or P14 P36) ?v_80)) (or (or P41 ?v_7) ?v_183)) (or (or ?v_79 ?v_187) ?v_96)) (or (or ?v_148 P40) P6)) (or (or ?v_83 ?v_125) ?v_141)) (or (or ?v_12 P26) P9)) (or (or ?v_26 P34) ?v_171)) (or (or ?v_50 ?v_231) P35)) (or (or ?v_161 ?v_128) ?v_232)) (or (or P40 P7) P27)) (or (or ?v_157 ?v_144) ?v_25)) (or (or P26 ?v_192) ?v_13)) (or (or ?v_184 ?v_177) ?v_67)) (or (or P18 ?v_203) ?v_156)) (or (or P38 ?v_190) ?v_208)) (or (or ?v_182 ?v_229) ?v_73)) (or (or ?v_237 ?v_91) ?v_151)) (or (or ?v_75 P28) ?v_103)) (or (or ?v_46 ?v_130) P34)) (or (or ?v_221 ?v_161) ?v_26)) (or (or ?v_2 ?v_10) ?v_218)) (or (or ?v_90 ?v_142) ?v_77)) (or (or ?v_41 ?v_183) ?v_215)) (or (or ?v_71 ?v_38) ?v_7)) (or (or ?v_197 ?v_247) ?v_6)) (or (or ?v_0 ?v_244) ?v_251)) (or (or ?v_241 ?v_198) ?v_252)) (or (or P29 ?v_120) ?v_156)) (or (or ?v_175 P44) P35)) (or (or ?v_44 P24) ?v_70)) (or (or ?v_151 P9) ?v_253)) (or (or ?v_70 ?v_88) ?v_179)) (or (or P40 ?v_173) ?v_210)) (or (or ?v_194 ?v_52) P29)) (or (or ?v_130 ?v_217) ?v_195)) (or (or P13 ?v_98) ?v_199)) (or (or ?v_243 P43) ?v_236)) (or (or ?v_254 ?v_118) ?v_23)) (or (or ?v_18 ?v_243) ?v_210)) (or (or ?v_90 ?v_73) ?v_182)) (or (or ?v_83 ?v_87) ?v_30)) (or (or ?v_255 ?v_168) ?v_21)) (or (or ?v_2 ?v_53) ?v_233)) (or (or ?v_101 ?v_235) ?v_28)) (or (or ?v_100 ?v_208) ?v_26)) (or (or ?v_172 ?v_25) ?v_151)) (or (or P19 ?v_182) ?v_31)) (or (or ?v_108 ?v_180) P40)) (or (or ?v_121 ?v_108) ?v_2)) (or (or ?v_170 ?v_240) ?v_195)) (or (or ?v_110 ?v_19) ?v_218)) (or (or ?v_133 ?v_30) ?v_13)) (or (or ?v_184 ?v_124) ?v_117)) (or (or ?v_51 ?v_195) ?v_138)) (or (or ?v_246 ?v_202) ?v_65)) (or (or P26 ?v_128) ?v_0)) (or (or P46 ?v_107) ?v_176)) (or (or ?v_61 P24) P17)) (or (or P26 ?v_56) ?v_241)) (or (or ?v_236 ?v_256) ?v_54)) (or (or ?v_75 ?v_28) ?v_82)) (or (or ?v_121 ?v_126) ?v_67)) (or (or ?v_207 P12) P14)) (or (or ?v_58 ?v_215) ?v_202)) (or (or ?v_229 ?v_187) ?v_142)) (or (or ?v_116 ?v_126) ?v_174)) (or (or ?v_43 ?v_181) ?v_157)) (or (or ?v_65 P44) ?v_77)) (or (or ?v_120 P9) ?v_136)) (or (or ?v_126 P3) ?v_199)) (or (or ?v_110 ?v_224) ?v_198)) (or (or ?v_162 ?v_141) ?v_88)) (or (or ?v_209 ?v_224) ?v_101)) (or (or ?v_49 ?v_192) ?v_55)) (or (or ?v_132 ?v_96) ?v_83)) (or (or ?v_255 ?v_124) ?v_211)) (or (or ?v_19 ?v_238) ?v_24)) (or (or ?v_66 ?v_84) ?v_131)) (or (or P17 ?v_107) ?v_158)) (or (or ?v_227 ?v_144) P49)) (or (or ?v_98 P12) ?v_242)) (or (or P41 P21) ?v_197)) (or (or ?v_126 ?v_196) ?v_133)) (or (or ?v_9 ?v_110) ?v_221)) (or (or ?v_27 ?v_88) ?v_19)) (or (or ?v_86 ?v_54) ?v_133)) (or (or ?v_222 P13) ?v_88)) (or (or P30 ?v_52) ?v_71)) (or (or ?v_203 ?v_219) ?v_5)) (or (or ?v_172 ?v_195) ?v_58)) (or (or ?v_128 ?v_257) ?v_25)) (or (or ?v_198 ?v_254) ?v_207)) (or (or ?v_258 ?v_6) ?v_124)) (or (or ?v_103 ?v_118) P26)) (or (or ?v_101 ?v_47) ?v_90)) (or (or ?v_243 ?v_35) ?v_36)) (or (or ?v_50 ?v_108) ?v_95)) (or (or ?v_164 ?v_54) ?v_202)) (or (or ?v_80 ?v_26) ?v_216)) (or (or P9 ?v_182) ?v_220)) (or (or P37 ?v_85) ?v_171)) (or (or ?v_23 ?v_45) P47)) (or (or ?v_161 ?v_51) ?v_196)) (or (or ?v_107 ?v_24) P3)) (or (or ?v_136 ?v_145) P38)) (or (or P35 ?v_190) ?v_67)) (or (or ?v_126 ?v_204) ?v_58)) (or (or P5 ?v_254) ?v_77)) (or (or ?v_81 ?v_89) ?v_197)) (or (or ?v_103 ?v_4) ?v_161)) (or (or ?v_106 ?v_84) ?v_74)) (or (or ?v_4 ?v_128) ?v_62)) (or (or ?v_257 P28) ?v_85)) (or (or ?v_230 ?v_120) ?v_221)) (or (or ?v_240 P35) ?v_228)) (or (or ?v_30 P36) ?v_246)) (or (or ?v_79 ?v_226) ?v_134)) (or (or ?v_72 P20) ?v_85)) (or (or P4 ?v_165) ?v_132)) (or (or ?v_85 ?v_26) ?v_0)) (or (or P10 ?v_201) ?v_0)) (or (or ?v_260 ?v_73) ?v_79)) (or (or P23 ?v_259) ?v_159)) (or (or ?v_241 ?v_38) ?v_17)) (or (or ?v_156 ?v_199) ?v_52)) (or (or ?v_243 ?v_60) ?v_166)) (or (or ?v_27 P33) P3)) (or (or ?v_112 ?v_239) ?v_132)) (or (or ?v_132 ?v_90) ?v_9)) (or (or ?v_155 ?v_185) ?v_198)) (or (or ?v_184 ?v_126) ?v_19)) (or (or ?v_18 ?v_244) ?v_240)) (or (or ?v_100 ?v_76) ?v_43)) (or (or ?v_10 ?v_258) ?v_190)) (or (or ?v_214 ?v_194) P25)) (or (or ?v_19 P48) ?v_243)) (or (or ?v_23 ?v_71) P31)) (or (or ?v_188 ?v_14) P0)) (or (or ?v_176 ?v_76) ?v_222)) (or (or P17 ?v_108) ?v_186)) (or (or P39 ?v_47) ?v_115)) (or (or ?v_16 ?v_241) ?v_240)) (or (or ?v_123 P17) P49)) (or (or ?v_113 ?v_155) ?v_189)) (or (or ?v_168 ?v_93) P40)) (or (or ?v_184 ?v_35) ?v_134)) (or (or ?v_158 P10) ?v_231)) (or (or ?v_65 ?v_117) ?v_42)) (or (or ?v_52 ?v_206) ?v_210)) (or (or ?v_260 ?v_47) P0)) (or (or ?v_139 P28) ?v_168)) (or (or ?v_3 ?v_157) ?v_0)) (or (or ?v_97 ?v_66) ?v_159)) (or (or P21 ?v_226) ?v_79)) (or (or ?v_97 P23) ?v_229)) (or (or ?v_113 ?v_70) ?v_2)))))))))))))))))))))))))))))))))))))
(check-sat)
(exit)
